FPU set for double precision

Propagation version: TRIE_V1

============================[ Problem Statistics ]=============================
|                                                                             |
|  Number of variables:           100                                         |
|  Number of clauses:              80                                         |
|  Parse time:                   0.00 s                                       |
|  Eliminated clauses:           0.00 Mb                                      |
|  Simplification time:          0.00 s                                       |
|                                                                             |
============================[ Search Statistics ]==============================
| Conflicts |          ORIGINAL         |          LEARNT          | Progress |
|           |    Vars  Clauses Literals |    Limit  Clauses Lit/Cl |          |
===============================================================================
===============================================================================
restarts              : 1
conflicts             : 0              (0 /sec)
decisions             : 1              (0.00 % random) (122 /sec)
propagations          : 97             (11789 /sec)
conflict literals     : 0              (-nan % deleted)
Memory used           : 15.68 MB
CPU time              : 0.008228 s
Propagation time      : 0.003369 s

SATISFIABLE
